Maximize
obj: 6 * x0_0 + 7 * x0_1 + 2 * x0_2 + 8 * x0_3 + 3 * x0_4 + 1 * x0_5 + 4 * x0_6 + 5 * x0_7 + 9 * x0_8 + 6 * x1_0 + 5 * x1_1 + 3 * x1_2 + 9 * x1_3 + 4 * x1_4 + 8 * x1_5 + 1 * x1_6 + 2 * x1_7 + 7 * x1_8 + 1 * x2_0 + 9 * x2_1 + 8 * x2_2 + 3 * x2_3 + 4 * x2_4 + 5 * x2_5 + 2 * x2_6 + 6 * x2_7 + 7 * x2_8 + 2 * x3_0 + 5 * x3_1 + 6 * x3_2 + 3 * x3_3 + 9 * x3_4 + 1 * x3_5 + 8 * x3_6 + 4 * x3_7 + 7 * x3_8 + 2 * x4_0 + 4 * x4_1 + 3 * x4_2 + 5 * x4_3 + 8 * x4_4 + 7 * x4_5 + 6 * x4_6 + 9 * x4_7 + 1 * x4_8 + 8 * x5_0 + 3 * x5_1 + 2 * x5_2 + 4 * x5_3 + 5 * x5_4 + 6 * x5_5 + 7 * x5_6 + 9 * x5_7 + 1 * x5_8 + 1 * x6_0 + 4 * x6_1 + 7 * x6_2 + 2 * x6_3 + 3 * x6_4 + 8 * x6_5 + 6 * x6_6 + 9 * x6_7 + 5 * x6_8 + 4 * x7_0 + 2 * x7_1 + 5 * x7_2 + 8 * x7_3 + 9 * x7_4 + 1 * x7_5 + 3 * x7_6 + 7 * x7_7 + 6 * x7_8 + 3 * x8_0 + 5 * x8_1 + 9 * x8_2 + 6 * x8_3 + 8 * x8_4 + 7 * x8_5 + 4 * x8_6 + 2 * x8_7 + 1 * x8_8 + 1 * x9_0 + 8 * x9_1 + 7 * x9_2 + 5 * x9_3 + 9 * x9_4 + 3 * x9_5 + 4 * x9_6 + 6 * x9_7 + 2 * x9_8 + 8 * x10_0 + 5 * x10_1 + 3 * x10_2 + 7 * x10_3 + 6 * x10_4 + 4 * x10_5 + 1 * x10_6 + 9 * x10_7 + 2 * x10_8
Subject To
c_etudiant_0: x0_8 + x0_3 + x0_1 = 1
c_etudiant_1: x1_3 + x1_5 + x1_8 = 1
c_etudiant_2: x2_1 + x2_2 + x2_8 = 1
c_etudiant_3: x3_4 + x3_6 + x3_8 = 1
c_etudiant_4: x4_7 + x4_4 + x4_5 = 1
c_etudiant_5: x5_7 + x5_0 + x5_6 = 1
c_etudiant_6: x6_7 + x6_5 + x6_2 = 1
c_etudiant_7: x7_4 + x7_3 + x7_7 = 1
c_etudiant_8: x8_2 + x8_4 + x8_5 = 1
c_etudiant_9: x9_4 + x9_1 + x9_2 = 1
c_etudiant_10: x10_7 + x10_0 + x10_3 = 1
c_capacite_0: x0_0 + x1_0 + x2_0 + x3_0 + x4_0 + x5_0 + x6_0 + x7_0 + x8_0 + x9_0 + x10_0 <= 2
c_capacite_1: x0_1 + x1_1 + x2_1 + x3_1 + x4_1 + x5_1 + x6_1 + x7_1 + x8_1 + x9_1 + x10_1 <= 1
c_capacite_2: x0_2 + x1_2 + x2_2 + x3_2 + x4_2 + x5_2 + x6_2 + x7_2 + x8_2 + x9_2 + x10_2 <= 1
c_capacite_3: x0_3 + x1_3 + x2_3 + x3_3 + x4_3 + x5_3 + x6_3 + x7_3 + x8_3 + x9_3 + x10_3 <= 1
c_capacite_4: x0_4 + x1_4 + x2_4 + x3_4 + x4_4 + x5_4 + x6_4 + x7_4 + x8_4 + x9_4 + x10_4 <= 1
c_capacite_5: x0_5 + x1_5 + x2_5 + x3_5 + x4_5 + x5_5 + x6_5 + x7_5 + x8_5 + x9_5 + x10_5 <= 1
c_capacite_6: x0_6 + x1_6 + x2_6 + x3_6 + x4_6 + x5_6 + x6_6 + x7_6 + x8_6 + x9_6 + x10_6 <= 1
c_capacite_7: x0_7 + x1_7 + x2_7 + x3_7 + x4_7 + x5_7 + x6_7 + x7_7 + x8_7 + x9_7 + x10_7 <= 1
c_capacite_8: x0_8 + x1_8 + x2_8 + x3_8 + x4_8 + x5_8 + x6_8 + x7_8 + x8_8 + x9_8 + x10_8 <= 2
Binary
x0_0 x0_1 x0_2 x0_3 x0_4 x0_5 x0_6 x0_7 x0_8 x1_0 x1_1 x1_2 x1_3 x1_4 x1_5 x1_6 x1_7 x1_8 x2_0 x2_1 x2_2 x2_3 x2_4 x2_5 x2_6 x2_7 x2_8 x3_0 x3_1 x3_2 x3_3 x3_4 x3_5 x3_6 x3_7 x3_8 x4_0 x4_1 x4_2 x4_3 x4_4 x4_5 x4_6 x4_7 x4_8 x5_0 x5_1 x5_2 x5_3 x5_4 x5_5 x5_6 x5_7 x5_8 x6_0 x6_1 x6_2 x6_3 x6_4 x6_5 x6_6 x6_7 x6_8 x7_0 x7_1 x7_2 x7_3 x7_4 x7_5 x7_6 x7_7 x7_8 x8_0 x8_1 x8_2 x8_3 x8_4 x8_5 x8_6 x8_7 x8_8 x9_0 x9_1 x9_2 x9_3 x9_4 x9_5 x9_6 x9_7 x9_8 x10_0 x10_1 x10_2 x10_3 x10_4 x10_5 x10_6 x10_7 x10_8
End
